# Objective value = 4803.17
I_0_0 1318
I_0_1 1863
I_0_2 1.6039999999999995e+03
I_0_3 1.7200000000000007e+03
I_1_0 36
I_1_1 18
I_1_2 1.4210854715202004e-14
I_1_3 3.6000000000000014e+01
I_2_0 150
I_2_1 75
I_2_2 3.4106051316484809e-13
I_2_3 1.4999999999999974e+02
I_3_0 39
I_3_1 2.1649348980190553e-15
I_3_2 39
I_3_3 2.1649348980190553e-15
I_4_0 72
I_4_1 0
I_4_2 72
I_4_3 0
I_5_0 52
I_5_1 26
I_5_2 52
I_5_3 2.6000000000000004e+01
I_6_0 54
I_6_1 2.9976021664879227e-15
I_6_2 54
I_6_3 0
I_7_0 100
I_7_1 50
I_7_2 0
I_7_3 100
I_8_0 118
I_8_1 59
I_8_2 1.1799999999999999e+02
I_8_3 5.8999999999999986e+01
I_9_0 77
I_9_1 0
I_9_2 77
I_9_3 0
I_10_0 75
I_10_1 0
I_10_2 75
I_10_3 0
q_1_0 0
q_1_1 -2.3980817331903381e-14
q_1_2 54
q_2_0 0
q_2_1 2.8599345114344032e-13
q_2_2 2.2499999999999940e+02
q_3_0 2.1649348980190553e-15
q_3_1 78
q_3_2 2.1649348980190553e-15
q_4_0 0
q_4_1 144
q_4_2 0
q_5_0 -7.2164496600635175e-16
q_5_1 52
q_5_2 0
q_6_0 2.9976021664879227e-15
q_6_1 108
q_6_2 0
q_7_0 0
q_7_1 1.4210854715202004e-14
q_7_2 150
q_8_0 0
q_8_1 118
q_8_2 0
q_9_0 0
q_9_1 154
q_9_2 0
q_10_0 0
q_10_1 150
q_10_2 0
y_0_0 0
y_0_1 1
y_0_2 1
y_1_0 0
y_1_1 0
y_1_2 9.9999999999999989e-01
y_2_0 0
y_2_1 1.9151347174783950e-15
y_2_2 0.999999999999998
y_3_0 5.5511151231257827e-17
y_3_1 1
y_3_2 5.5511151231257827e-17
y_4_0 0
y_4_1 1
y_4_2 0
y_5_0 -2.7755575615628914e-17
y_5_1 1
y_5_2 2.7755575615628914e-17
y_6_0 5.5511151231257827e-17
y_6_1 1
y_6_2 0
y_7_0 0
y_7_1 0
y_7_2 1
y_8_0 0
y_8_1 1
y_8_2 0
y_9_0 0
y_9_1 1
y_9_2 0
y_10_0 0
y_10_1 1
y_10_2 0
x_0_1_0 0
x_0_1_1 0
x_0_1_2 1.0000000000000004e+00
x_0_2_0 0
x_0_2_1 1.9151347174783950e-15
x_0_2_2 9.9999999999999734e-01
x_0_3_0 0
x_0_3_1 0
x_0_3_2 0
x_0_4_0 0
x_0_4_1 0.999999999999998
x_0_4_2 2.4980018054066022e-16
x_0_5_0 0
x_0_5_1 0
x_0_5_2 0
x_0_6_0 0
x_0_6_1 0
x_0_6_2 0
x_0_7_0 0
x_0_7_1 0
x_0_7_2 1.8041124150158794e-15
x_0_8_0 0
x_0_8_1 9.9999999999999989e-01
x_0_8_2 -2.9143354396410359e-16
x_0_9_0 0
x_0_9_1 0
x_0_9_2 0
x_0_10_0 0
x_0_10_1 0
x_0_10_2 0
x_1_2_0 6.9388939039072284e-18
x_1_2_1 0
x_1_2_2 0
x_1_3_0 0
x_1_3_1 0
x_1_3_2 0
x_1_4_0 0
x_1_4_1 0
x_1_4_2 0
x_1_5_0 0
x_1_5_1 0
x_1_5_2 0
x_1_6_0 0
x_1_6_1 0
x_1_6_2 0
x_1_7_0 0
x_1_7_1 0
x_1_7_2 1.0000000000000007e+00
x_1_8_0 0
x_1_8_1 0
x_1_8_2 0
x_1_9_0 0
x_1_9_1 0
x_1_9_2 0
x_1_10_0 0
x_1_10_1 0
x_1_10_2 0
x_2_3_0 0
x_2_3_1 0
x_2_3_2 0
x_2_4_0 -5.5511151231257827e-17
x_2_4_1 1.9151347174783950e-15
x_2_4_2 0
x_2_5_0 0
x_2_5_1 0
x_2_5_2 0
x_2_6_0 0
x_2_6_1 0
x_2_6_2 0
x_2_7_0 0
x_2_7_1 0
x_2_7_2 9.9999999999999811e-01
x_2_8_0 0
x_2_8_1 0
x_2_8_2 0
x_2_9_0 0
x_2_9_1 0
x_2_9_2 3.6082248300317588e-16
x_2_10_0 0
x_2_10_1 0
x_2_10_2 2.9143354396410359e-16
x_3_4_0 0
x_3_4_1 1.0000000000000002e+00
x_3_4_2 0
x_3_5_0 5.5511151231257827e-17
x_3_5_1 1
x_3_5_2 5.5511151231257827e-17
x_3_6_0 5.5511151231257827e-17
x_3_6_1 -3.3306690738754696e-16
x_3_6_2 0
x_3_7_0 0
x_3_7_1 0
x_3_7_2 5.5511151231257827e-17
x_3_8_0 0
x_3_8_1 0
x_3_8_2 0
x_3_9_0 0
x_3_9_1 0
x_3_9_2 0
x_3_10_0 0
x_3_10_1 0
x_3_10_2 0
x_4_5_0 0
x_4_5_1 0
x_4_5_2 0
x_4_6_0 5.5511151231257827e-17
x_4_6_1 0
x_4_6_2 0
x_4_7_0 0
x_4_7_1 0
x_4_7_2 0
x_4_8_0 0
x_4_8_1 1.6653345369377348e-16
x_4_8_2 0
x_4_9_0 0
x_4_9_1 0
x_4_9_2 -3.6082248300317588e-16
x_4_10_0 0
x_4_10_1 0
x_4_10_2 0
x_5_6_0 0
x_5_6_1 1.0000000000000004e+00
x_5_6_2 0
x_5_7_0 -1.1102230246251565e-16
x_5_7_1 0
x_5_7_2 0
x_5_8_0 0
x_5_8_1 -3.3306690738754696e-16
x_5_8_2 0
x_5_9_0 0
x_5_9_1 0
x_5_9_2 0
x_5_10_0 0
x_5_10_1 0
x_5_10_2 0
x_6_7_0 0
x_6_7_1 0
x_6_7_2 0
x_6_8_0 0
x_6_8_1 0
x_6_8_2 2.9143354396410359e-16
x_6_9_0 0
x_6_9_1 9.9999999999999989e-01
x_6_9_2 0
x_6_10_0 0
x_6_10_1 1.1102230246251565e-16
x_6_10_2 -3.1918911957973251e-16
x_7_8_0 0
x_7_8_1 0
x_7_8_2 0
x_7_9_0 0
x_7_9_1 0
x_7_9_2 0
x_7_10_0 0
x_7_10_1 0
x_7_10_2 0
x_8_9_0 0
x_8_9_1 6.5919492087118670e-17
x_8_9_2 0
x_8_10_0 0
x_8_10_1 1
x_8_10_2 0
x_9_10_0 0
x_9_10_1 9.9999999999999989e-01
x_9_10_2 0
